Bruniera/ragionamento automatico/progetto/benchmark/asp/mid16.lp
start(0).
limit(6).
n(14).
strada(0,1,12).
strada(0,2,20).
strada(0,11,9).
strada(0,13,17).
strada(1,2,10).
strada(1,3,0).
strada(1,4,13).
strada(1,5,6).
strada(1,8,2).
strada(1,11,15).
strada(2,5,3).
strada(2,6,12).
strada(2,9,14).
strada(2,12,5).
strada(2,13,14).
strada(3,2,8).
strada(3,5,17).
strada(3,8,4).
strada(3,9,3).
strada(3,10,6).
strada(3,11,17).
strada(4,0,18).
strada(4,1,10).
strada(4,2,14).
strada(4,8,12).
strada(4,9,6).
strada(4,12,3).
strada(5,3,11).
strada(5,7,9).
strada(5,8,1).
strada(5,9,18).
strada(5,10,16).
strada(5,11,0).
strada(6,4,20).
strada(6,8,18).
strada(6,11,20).
strada(6,13,9).
strada(7,0,3).
strada(7,4,7).
strada(7,9,18).
strada(7,12,19).
strada(8,5,10).
strada(8,6,2).
strada(8,7,17).
strada(8,9,4).
strada(8,11,0).
strada(9,2,15).
strada(9,3,13).
strada(9,5,3).
strada(9,6,10).
strada(9,8,11).
strada(9,10,11).
strada(9,11,0).
strada(9,12,3).
strada(10,0,10).
strada(10,1,8).
strada(10,3,8).
strada(10,5,0).
strada(10,8,8).
strada(10,9,5).
strada(10,12,13).
strada(10,13,3).
strada(11,1,1).
strada(11,4,18).
strada(11,6,16).
strada(11,8,13).
strada(11,12,13).
strada(11,13,12).
strada(12,0,8).
strada(12,1,13).
strada(12,3,8).
strada(12,6,20).
strada(12,9,4).
strada(12,10,4).
strada(13,0,3).
strada(13,1,20).
strada(13,2,6).
strada(13,4,4).
