Bruniera/ragionamento automatico/progetto/benchmark/minizinc/mid16.dzn
start = 1;
limit = 6;
n = 14;
m=[|-1,12,20,-1,-1,-1,-1,-1,-1,-1,-1,9,-1,17,
|-1,-1,10,0,13,6,-1,-1,2,-1,-1,15,-1,-1,
|-1,-1,-1,-1,-1,3,12,-1,-1,14,-1,-1,5,14,
|-1,-1,8,-1,-1,17,-1,-1,4,3,6,17,-1,-1,
|18,10,14,-1,-1,-1,-1,-1,12,6,-1,-1,3,-1,
|-1,-1,-1,11,-1,-1,-1,9,1,18,16,0,-1,-1,
|-1,-1,-1,-1,20,-1,-1,-1,18,-1,-1,20,-1,9,
|3,-1,-1,-1,7,-1,-1,-1,-1,18,-1,-1,19,-1,
|-1,-1,-1,-1,-1,10,2,17,-1,4,-1,0,-1,-1,
|-1,-1,15,13,-1,3,10,-1,11,-1,11,0,3,-1,
|10,8,-1,8,-1,0,-1,-1,8,5,-1,-1,13,3,
|-1,1,-1,-1,18,-1,16,-1,13,-1,-1,-1,13,12,
|8,13,-1,8,-1,-1,20,-1,-1,4,4,-1,-1,-1,
|3,20,6,-1,4,-1,-1,-1,-1,-1,-1,-1,-1,-1,
|]
;